c nIsolatedPIs 48
c maxPI 208
p cnf 771 1690
c gate 209 -96 -200 0
-96 -209 0
-200 -209 0
96 200 209 0
c gate 210 95 199 0
95 -210 0
199 -210 0
-95 -199 210 0
c gate 211 96 200 0
96 -211 0
200 -211 0
-96 -200 211 0
c gate 212 -210 -211 0
-210 -212 0
-211 -212 0
210 211 212 0
c gate 213 -95 -199 0
-95 -213 0
-199 -213 0
95 199 213 0
c gate 214 -94 -198 0
-94 -214 0
-198 -214 0
94 198 214 0
c gate 215 -213 -214 0
-213 -215 0
-214 -215 0
213 214 215 0
c gate 216 -93 -197 0
-93 -216 0
-197 -216 0
93 197 216 0
c gate 217 92 196 0
92 -217 0
196 -217 0
-92 -196 217 0
c gate 218 -91 -195 0
-91 -218 0
-195 -218 0
91 195 218 0
c gate 219 -92 -196 0
-92 -219 0
-196 -219 0
92 196 219 0
c gate 220 -218 -219 0
-218 -220 0
-219 -220 0
218 219 220 0
c gate 221 -90 -194 0
-90 -221 0
-194 -221 0
90 194 221 0
c gate 222 89 193 0
89 -222 0
193 -222 0
-89 -193 222 0
c gate 223 -221 222 0
-221 -223 0
222 -223 0
221 -222 223 0
c gate 224 91 195 0
91 -224 0
195 -224 0
-91 -195 224 0
c gate 225 90 194 0
90 -225 0
194 -225 0
-90 -194 225 0
c gate 226 -224 -225 0
-224 -226 0
-225 -226 0
224 225 226 0
c gate 227 -223 226 0
-223 -227 0
226 -227 0
223 -226 227 0
c gate 228 220 -227 0
220 -228 0
-227 -228 0
-220 227 228 0
c gate 229 -217 -228 0
-217 -229 0
-228 -229 0
217 228 229 0
c gate 230 -216 -229 0
-216 -230 0
-229 -230 0
216 229 230 0
c gate 231 93 197 0
93 -231 0
197 -231 0
-93 -197 231 0
c gate 232 94 198 0
94 -232 0
198 -232 0
-94 -198 232 0
c gate 233 -231 -232 0
-231 -233 0
-232 -233 0
231 232 233 0
c gate 234 -230 233 0
-230 -234 0
233 -234 0
230 -233 234 0
c gate 235 82 186 0
82 -235 0
186 -235 0
-82 -186 235 0
c gate 236 -80 -184 0
-80 -236 0
-184 -236 0
80 184 236 0
c gate 237 80 184 0
80 -237 0
184 -237 0
-80 -184 237 0
c gate 238 79 183 0
79 -238 0
183 -238 0
-79 -183 238 0
c gate 239 -237 -238 0
-237 -239 0
-238 -239 0
237 238 239 0
c gate 240 -79 -183 0
-79 -240 0
-183 -240 0
79 183 240 0
c gate 241 -78 -182 0
-78 -241 0
-182 -241 0
78 182 241 0
c gate 242 77 181 0
77 -242 0
181 -242 0
-77 -181 242 0
c gate 243 78 182 0
78 -243 0
182 -243 0
-78 -182 243 0
c gate 244 -242 -243 0
-242 -244 0
-243 -244 0
242 243 244 0
c gate 245 -241 -244 0
-241 -245 0
-244 -245 0
241 244 245 0
c gate 246 -240 245 0
-240 -246 0
245 -246 0
240 -245 246 0
c gate 247 239 -246 0
239 -247 0
-246 -247 0
-239 246 247 0
c gate 248 -236 -247 0
-236 -248 0
-247 -248 0
236 247 248 0
c gate 249 -77 -181 0
-77 -249 0
-181 -249 0
77 181 249 0
c gate 250 -241 -249 0
-241 -250 0
-249 -250 0
241 249 250 0
c gate 251 244 250 0
244 -251 0
250 -251 0
-244 -250 251 0
c gate 252 -236 -240 0
-236 -252 0
-240 -252 0
236 240 252 0
c gate 253 251 252 0
251 -253 0
252 -253 0
-251 -252 253 0
c gate 254 239 253 0
239 -254 0
253 -254 0
-239 -253 254 0
c gate 255 -72 -176 0
-72 -255 0
-176 -255 0
72 176 255 0
c gate 256 71 175 0
71 -256 0
175 -256 0
-71 -175 256 0
c gate 257 72 176 0
72 -257 0
176 -257 0
-72 -176 257 0
c gate 258 -256 -257 0
-256 -258 0
-257 -258 0
256 257 258 0
c gate 259 -255 -258 0
-255 -259 0
-258 -259 0
255 258 259 0
c gate 260 -61 -165 0
-61 -260 0
-165 -260 0
61 165 260 0
c gate 261 -63 -167 0
-63 -261 0
-167 -261 0
63 167 261 0
c gate 262 -62 -166 0
-62 -262 0
-166 -262 0
62 166 262 0
c gate 263 -64 -168 0
-64 -263 0
-168 -263 0
64 168 263 0
c gate 264 -262 -263 0
-262 -264 0
-263 -264 0
262 263 264 0
c gate 265 -261 264 0
-261 -265 0
264 -265 0
261 -264 265 0
c gate 266 -260 265 0
-260 -266 0
265 -266 0
260 -265 266 0
c gate 267 -60 -164 0
-60 -267 0
-164 -267 0
60 164 267 0
c gate 268 57 161 0
57 -268 0
161 -268 0
-57 -161 268 0
c gate 269 58 162 0
58 -269 0
162 -269 0
-58 -162 269 0
c gate 270 -268 -269 0
-268 -270 0
-269 -270 0
268 269 270 0
c gate 271 -59 -163 0
-59 -271 0
-163 -271 0
59 163 271 0
c gate 272 -58 -162 0
-58 -272 0
-162 -272 0
58 162 272 0
c gate 273 -271 -272 0
-271 -273 0
-272 -273 0
271 272 273 0
c gate 274 -270 273 0
-270 -274 0
273 -274 0
270 -273 274 0
c gate 275 60 164 0
60 -275 0
164 -275 0
-60 -164 275 0
c gate 276 59 163 0
59 -276 0
163 -276 0
-59 -163 276 0
c gate 277 -275 -276 0
-275 -277 0
-276 -277 0
275 276 277 0
c gate 278 -274 277 0
-274 -278 0
277 -278 0
274 -277 278 0
c gate 279 -267 -278 0
-267 -279 0
-278 -279 0
267 278 279 0
c gate 280 -48 -152 0
-48 -280 0
-152 -280 0
48 152 280 0
c gate 281 47 151 0
47 -281 0
151 -281 0
-47 -151 281 0
c gate 282 48 152 0
48 -282 0
152 -282 0
-48 -152 282 0
c gate 283 -281 -282 0
-281 -283 0
-282 -283 0
281 282 283 0
c gate 284 45 149 0
45 -284 0
149 -284 0
-45 -149 284 0
c gate 285 46 150 0
46 -285 0
150 -285 0
-46 -150 285 0
c gate 286 -284 -285 0
-284 -286 0
-285 -286 0
284 285 286 0
c gate 287 -44 -148 0
-44 -287 0
-148 -287 0
44 148 287 0
c gate 288 -45 -149 0
-45 -288 0
-149 -288 0
45 149 288 0
c gate 289 -287 -288 0
-287 -289 0
-288 -289 0
287 288 289 0
c gate 290 -43 -147 0
-43 -290 0
-147 -290 0
43 147 290 0
c gate 291 -42 -146 0
-42 -291 0
-146 -291 0
42 146 291 0
c gate 292 -290 -291 0
-290 -292 0
-291 -292 0
290 291 292 0
c gate 293 42 146 0
42 -293 0
146 -293 0
-42 -146 293 0
c gate 294 41 145 0
41 -294 0
145 -294 0
-41 -145 294 0
c gate 295 -293 -294 0
-293 -295 0
-294 -295 0
293 294 295 0
c gate 296 292 -295 0
292 -296 0
-295 -296 0
-292 295 296 0
c gate 297 44 148 0
44 -297 0
148 -297 0
-44 -148 297 0
c gate 298 43 147 0
43 -298 0
147 -298 0
-43 -147 298 0
c gate 299 -297 -298 0
-297 -299 0
-298 -299 0
297 298 299 0
c gate 300 -296 299 0
-296 -300 0
299 -300 0
296 -299 300 0
c gate 301 289 -300 0
289 -301 0
-300 -301 0
-289 300 301 0
c gate 302 286 -301 0
286 -302 0
-301 -302 0
-286 301 302 0
c gate 303 -46 -150 0
-46 -303 0
-150 -303 0
46 150 303 0
c gate 304 -47 -151 0
-47 -304 0
-151 -304 0
47 151 304 0
c gate 305 -303 -304 0
-303 -305 0
-304 -305 0
303 304 305 0
c gate 306 -302 305 0
-302 -306 0
305 -306 0
302 -305 306 0
c gate 307 283 -306 0
283 -307 0
-306 -307 0
-283 306 307 0
c gate 308 -280 -307 0
-280 -308 0
-307 -308 0
280 307 308 0
c gate 309 39 143 0
39 -309 0
143 -309 0
-39 -143 309 0
c gate 310 40 144 0
40 -310 0
144 -310 0
-40 -144 310 0
c gate 311 -309 -310 0
-309 -311 0
-310 -311 0
309 310 311 0
c gate 312 -40 -144 0
-40 -312 0
-144 -312 0
40 144 312 0
c gate 313 -311 -312 0
-311 -313 0
-312 -313 0
311 312 313 0
c gate 314 37 141 0
37 -314 0
141 -314 0
-37 -141 314 0
c gate 315 38 142 0
38 -315 0
142 -315 0
-38 -142 315 0
c gate 316 -314 -315 0
-314 -316 0
-315 -316 0
314 315 316 0
c gate 317 -39 -143 0
-39 -317 0
-143 -317 0
39 143 317 0
c gate 318 -38 -142 0
-38 -318 0
-142 -318 0
38 142 318 0
c gate 319 -312 -318 0
-312 -319 0
-318 -319 0
312 318 319 0
c gate 320 -317 319 0
-317 -320 0
319 -320 0
317 -319 320 0
c gate 321 311 320 0
311 -321 0
320 -321 0
-311 -320 321 0
c gate 322 -316 321 0
-316 -322 0
321 -322 0
316 -321 322 0
c gate 323 -313 -322 0
-313 -323 0
-322 -323 0
313 322 323 0
c gate 324 35 139 0
35 -324 0
139 -324 0
-35 -139 324 0
c gate 325 36 140 0
36 -325 0
140 -325 0
-36 -140 325 0
c gate 326 -324 -325 0
-324 -326 0
-325 -326 0
324 325 326 0
c gate 327 19 123 0
19 -327 0
123 -327 0
-19 -123 327 0
c gate 328 20 124 0
20 -328 0
124 -328 0
-20 -124 328 0
c gate 329 -327 -328 0
-327 -329 0
-328 -329 0
327 328 329 0
c gate 330 17 121 0
17 -330 0
121 -330 0
-17 -121 330 0
c gate 331 18 122 0
18 -331 0
122 -331 0
-18 -122 331 0
c gate 332 -330 -331 0
-330 -332 0
-331 -332 0
330 331 332 0
c gate 333 -19 -123 0
-19 -333 0
-123 -333 0
19 123 333 0
c gate 334 -18 -122 0
-18 -334 0
-122 -334 0
18 122 334 0
c gate 335 -333 -334 0
-333 -335 0
-334 -335 0
333 334 335 0
c gate 336 -332 335 0
-332 -336 0
335 -336 0
332 -335 336 0
c gate 337 329 -336 0
329 -337 0
-336 -337 0
-329 336 337 0
c gate 338 -20 -124 0
-20 -338 0
-124 -338 0
20 124 338 0
c gate 339 -21 -125 0
-21 -339 0
-125 -339 0
21 125 339 0
c gate 340 -338 -339 0
-338 -340 0
-339 -340 0
338 339 340 0
c gate 341 -337 340 0
-337 -341 0
340 -341 0
337 -340 341 0
c gate 342 22 126 0
22 -342 0
126 -342 0
-22 -126 342 0
c gate 343 21 125 0
21 -343 0
125 -343 0
-21 -125 343 0
c gate 344 -342 -343 0
-342 -344 0
-343 -344 0
342 343 344 0
c gate 345 -341 344 0
-341 -345 0
344 -345 0
341 -344 345 0
c gate 346 2 106 0
2 -346 0
106 -346 0
-2 -106 346 0
c gate 347 1 105 0
1 -347 0
105 -347 0
-1 -105 347 0
c gate 348 -346 -347 0
-346 -348 0
-347 -348 0
346 347 348 0
c gate 349 -3 -107 0
-3 -349 0
-107 -349 0
3 107 349 0
c gate 350 -2 -106 0
-2 -350 0
-106 -350 0
2 106 350 0
c gate 351 -349 -350 0
-349 -351 0
-350 -351 0
349 350 351 0
c gate 352 -348 351 0
-348 -352 0
351 -352 0
348 -351 352 0
c gate 353 4 108 0
4 -353 0
108 -353 0
-4 -108 353 0
c gate 354 3 107 0
3 -354 0
107 -354 0
-3 -107 354 0
c gate 355 -353 -354 0
-353 -355 0
-354 -355 0
353 354 355 0
c gate 356 -352 355 0
-352 -356 0
355 -356 0
352 -355 356 0
c gate 357 -5 -109 0
-5 -357 0
-109 -357 0
5 109 357 0
c gate 358 -4 -108 0
-4 -358 0
-108 -358 0
4 108 358 0
c gate 359 -357 -358 0
-357 -359 0
-358 -359 0
357 358 359 0
c gate 360 -356 359 0
-356 -360 0
359 -360 0
356 -359 360 0
c gate 361 6 110 0
6 -361 0
110 -361 0
-6 -110 361 0
c gate 362 5 109 0
5 -362 0
109 -362 0
-5 -109 362 0
c gate 363 -361 -362 0
-361 -363 0
-362 -363 0
361 362 363 0
c gate 364 -360 363 0
-360 -364 0
363 -364 0
360 -363 364 0
c gate 365 -7 -111 0
-7 -365 0
-111 -365 0
7 111 365 0
c gate 366 -6 -110 0
-6 -366 0
-110 -366 0
6 110 366 0
c gate 367 -365 -366 0
-365 -367 0
-366 -367 0
365 366 367 0
c gate 368 -364 367 0
-364 -368 0
367 -368 0
364 -367 368 0
c gate 369 8 112 0
8 -369 0
112 -369 0
-8 -112 369 0
c gate 370 7 111 0
7 -370 0
111 -370 0
-7 -111 370 0
c gate 371 -369 -370 0
-369 -371 0
-370 -371 0
369 370 371 0
c gate 372 -368 371 0
-368 -372 0
371 -372 0
368 -371 372 0
c gate 373 -9 -113 0
-9 -373 0
-113 -373 0
9 113 373 0
c gate 374 -8 -112 0
-8 -374 0
-112 -374 0
8 112 374 0
c gate 375 -373 -374 0
-373 -375 0
-374 -375 0
373 374 375 0
c gate 376 -372 375 0
-372 -376 0
375 -376 0
372 -375 376 0
c gate 377 9 113 0
9 -377 0
113 -377 0
-9 -113 377 0
c gate 378 10 114 0
10 -378 0
114 -378 0
-10 -114 378 0
c gate 379 -377 -378 0
-377 -379 0
-378 -379 0
377 378 379 0
c gate 380 -376 379 0
-376 -380 0
379 -380 0
376 -379 380 0
c gate 381 -10 -114 0
-10 -381 0
-114 -381 0
10 114 381 0
c gate 382 -11 -115 0
-11 -382 0
-115 -382 0
11 115 382 0
c gate 383 -381 -382 0
-381 -383 0
-382 -383 0
381 382 383 0
c gate 384 -380 383 0
-380 -384 0
383 -384 0
380 -383 384 0
c gate 385 11 115 0
11 -385 0
115 -385 0
-11 -115 385 0
c gate 386 12 116 0
12 -386 0
116 -386 0
-12 -116 386 0
c gate 387 -385 -386 0
-385 -387 0
-386 -387 0
385 386 387 0
c gate 388 -384 387 0
-384 -388 0
387 -388 0
384 -387 388 0
c gate 389 -15 -119 0
-15 -389 0
-119 -389 0
15 119 389 0
c gate 390 -14 -118 0
-14 -390 0
-118 -390 0
14 118 390 0
c gate 391 -389 -390 0
-389 -391 0
-390 -391 0
389 390 391 0
c gate 392 -12 -116 0
-12 -392 0
-116 -392 0
12 116 392 0
c gate 393 -13 -117 0
-13 -393 0
-117 -393 0
13 117 393 0
c gate 394 -392 -393 0
-392 -394 0
-393 -394 0
392 393 394 0
c gate 395 391 394 0
391 -395 0
394 -395 0
-391 -394 395 0
c gate 396 -388 395 0
-388 -396 0
395 -396 0
388 -395 396 0
c gate 397 13 117 0
13 -397 0
117 -397 0
-13 -117 397 0
c gate 398 14 118 0
14 -398 0
118 -398 0
-14 -118 398 0
c gate 399 -397 -398 0
-397 -399 0
-398 -399 0
397 398 399 0
c gate 400 391 -399 0
391 -400 0
-399 -400 0
-391 399 400 0
c gate 401 15 119 0
15 -401 0
119 -401 0
-15 -119 401 0
c gate 402 16 120 0
16 -402 0
120 -402 0
-16 -120 402 0
c gate 403 -401 -402 0
-401 -403 0
-402 -403 0
401 402 403 0
c gate 404 -400 403 0
-400 -404 0
403 -404 0
400 -403 404 0
c gate 405 -396 404 0
-396 -405 0
404 -405 0
396 -404 405 0
c gate 406 -17 -121 0
-17 -406 0
-121 -406 0
17 121 406 0
c gate 407 -16 -120 0
-16 -407 0
-120 -407 0
16 120 407 0
c gate 408 -406 -407 0
-406 -408 0
-407 -408 0
406 407 408 0
c gate 409 329 408 0
329 -409 0
408 -409 0
-329 -408 409 0
c gate 410 332 335 0
332 -410 0
335 -410 0
-332 -335 410 0
c gate 411 340 410 0
340 -411 0
410 -411 0
-340 -410 411 0
c gate 412 409 411 0
409 -412 0
411 -412 0
-409 -411 412 0
c gate 413 -405 412 0
-405 -413 0
412 -413 0
405 -412 413 0
c gate 414 345 -413 0
345 -414 0
-413 -414 0
-345 413 414 0
c gate 415 -24 -128 0
-24 -415 0
-128 -415 0
24 128 415 0
c gate 416 -23 -127 0
-23 -416 0
-127 -416 0
23 127 416 0
c gate 417 -22 -126 0
-22 -417 0
-126 -417 0
22 126 417 0
c gate 418 -416 -417 0
-416 -418 0
-417 -418 0
416 417 418 0
c gate 419 -415 418 0
-415 -419 0
418 -419 0
415 -418 419 0
c gate 420 -414 419 0
-414 -420 0
419 -420 0
414 -419 420 0
c gate 421 -345 418 0
-345 -421 0
418 -421 0
345 -418 421 0
c gate 422 24 128 0
24 -422 0
128 -422 0
-24 -128 422 0
c gate 423 23 127 0
23 -423 0
127 -423 0
-23 -127 423 0
c gate 424 -422 -423 0
-422 -424 0
-423 -424 0
422 423 424 0
c gate 425 -421 424 0
-421 -425 0
424 -425 0
421 -424 425 0
c gate 426 -415 -425 0
-415 -426 0
-425 -426 0
415 425 426 0
c gate 427 -420 -426 0
-420 -427 0
-426 -427 0
420 426 427 0
c gate 428 26 130 0
26 -428 0
130 -428 0
-26 -130 428 0
c gate 429 25 129 0
25 -429 0
129 -429 0
-25 -129 429 0
c gate 430 -428 -429 0
-428 -430 0
-429 -430 0
428 429 430 0
c gate 431 -26 -130 0
-26 -431 0
-130 -431 0
26 130 431 0
c gate 432 -25 -129 0
-25 -432 0
-129 -432 0
25 129 432 0
c gate 433 -431 -432 0
-431 -433 0
-432 -433 0
431 432 433 0
c gate 434 430 433 0
430 -434 0
433 -434 0
-430 -433 434 0
c gate 435 -427 434 0
-427 -435 0
434 -435 0
427 -434 435 0
c gate 436 -30 -134 0
-30 -436 0
-134 -436 0
30 134 436 0
c gate 437 -29 -133 0
-29 -437 0
-133 -437 0
29 133 437 0
c gate 438 -436 -437 0
-436 -438 0
-437 -438 0
436 437 438 0
c gate 439 31 135 0
31 -439 0
135 -439 0
-31 -135 439 0
c gate 440 32 136 0
32 -440 0
136 -440 0
-32 -136 440 0
c gate 441 -439 -440 0
-439 -441 0
-440 -441 0
439 440 441 0
c gate 442 438 441 0
438 -442 0
441 -442 0
-438 -441 442 0
c gate 443 29 133 0
29 -443 0
133 -443 0
-29 -133 443 0
c gate 444 30 134 0
30 -444 0
134 -444 0
-30 -134 444 0
c gate 445 -443 -444 0
-443 -445 0
-444 -445 0
443 444 445 0
c gate 446 -32 -136 0
-32 -446 0
-136 -446 0
32 136 446 0
c gate 447 -31 -135 0
-31 -447 0
-135 -447 0
31 135 447 0
c gate 448 -446 -447 0
-446 -448 0
-447 -448 0
446 447 448 0
c gate 449 445 448 0
445 -449 0
448 -449 0
-445 -448 449 0
c gate 450 442 449 0
442 -450 0
449 -450 0
-442 -449 450 0
c gate 451 -27 -131 0
-27 -451 0
-131 -451 0
27 131 451 0
c gate 452 -28 -132 0
-28 -452 0
-132 -452 0
28 132 452 0
c gate 453 -451 -452 0
-451 -453 0
-452 -453 0
451 452 453 0
c gate 454 28 132 0
28 -454 0
132 -454 0
-28 -132 454 0
c gate 455 27 131 0
27 -455 0
131 -455 0
-27 -131 455 0
c gate 456 -454 -455 0
-454 -456 0
-455 -456 0
454 455 456 0
c gate 457 453 456 0
453 -457 0
456 -457 0
-453 -456 457 0
c gate 458 450 457 0
450 -458 0
457 -458 0
-450 -457 458 0
c gate 459 435 458 0
435 -459 0
458 -459 0
-435 -458 459 0
c gate 460 -430 -431 0
-430 -460 0
-431 -460 0
430 431 460 0
c gate 461 -455 -460 0
-455 -461 0
-460 -461 0
455 460 461 0
c gate 462 453 -461 0
453 -462 0
-461 -462 0
-453 461 462 0
c gate 463 -454 -462 0
-454 -463 0
-462 -463 0
454 462 463 0
c gate 464 450 -463 0
450 -464 0
-463 -464 0
-450 463 464 0
c gate 465 -436 -445 0
-436 -465 0
-445 -465 0
436 445 465 0
c gate 466 -439 -465 0
-439 -466 0
-465 -466 0
439 465 466 0
c gate 467 448 -466 0
448 -467 0
-466 -467 0
-448 466 467 0
c gate 468 -440 -467 0
-440 -468 0
-467 -468 0
440 467 468 0
c gate 469 -464 468 0
-464 -469 0
468 -469 0
464 -468 469 0
c gate 470 -459 469 0
-459 -470 0
469 -470 0
459 -469 470 0
c gate 471 -34 -138 0
-34 -471 0
-138 -471 0
34 138 471 0
c gate 472 -33 -137 0
-33 -472 0
-137 -472 0
33 137 472 0
c gate 473 -471 -472 0
-471 -473 0
-472 -473 0
471 472 473 0
c gate 474 33 137 0
33 -474 0
137 -474 0
-33 -137 474 0
c gate 475 473 -474 0
473 -475 0
-474 -475 0
-473 474 475 0
c gate 476 -470 475 0
-470 -476 0
475 -476 0
470 -475 476 0
c gate 477 34 138 0
34 -477 0
138 -477 0
-34 -138 477 0
c gate 478 -474 -477 0
-474 -478 0
-477 -478 0
474 477 478 0
c gate 479 -471 -478 0
-471 -479 0
-478 -479 0
471 478 479 0
c gate 480 -476 -479 0
-476 -480 0
-479 -480 0
476 479 480 0
c gate 481 -35 -139 0
-35 -481 0
-139 -481 0
35 139 481 0
c gate 482 -480 -481 0
-480 -482 0
-481 -482 0
480 481 482 0
c gate 483 326 -482 0
326 -483 0
-482 -483 0
-326 482 483 0
c gate 484 -36 -140 0
-36 -484 0
-140 -484 0
36 140 484 0
c gate 485 -37 -141 0
-37 -485 0
-141 -485 0
37 141 485 0
c gate 486 -484 -485 0
-484 -486 0
-485 -486 0
484 485 486 0
c gate 487 316 486 0
316 -487 0
486 -487 0
-316 -486 487 0
c gate 488 321 487 0
321 -488 0
487 -488 0
-321 -487 488 0
c gate 489 -483 488 0
-483 -489 0
488 -489 0
483 -488 489 0
c gate 490 323 -489 0
323 -490 0
-489 -490 0
-323 489 490 0
c gate 491 -41 -145 0
-41 -491 0
-145 -491 0
41 145 491 0
c gate 492 -280 -491 0
-280 -492 0
-491 -492 0
280 491 492 0
c gate 493 283 492 0
283 -493 0
492 -493 0
-283 -492 493 0
c gate 494 286 289 0
286 -494 0
289 -494 0
-286 -289 494 0
c gate 495 292 305 0
292 -495 0
305 -495 0
-292 -305 495 0
c gate 496 494 495 0
494 -496 0
495 -496 0
-494 -495 496 0
c gate 497 493 496 0
493 -497 0
496 -497 0
-493 -496 497 0
c gate 498 300 497 0
300 -498 0
497 -498 0
-300 -497 498 0
c gate 499 -490 498 0
-490 -499 0
498 -499 0
490 -498 499 0
c gate 500 -308 -499 0
-308 -500 0
-499 -500 0
308 499 500 0
c gate 501 49 153 0
49 -501 0
153 -501 0
-49 -153 501 0
c gate 502 50 154 0
50 -502 0
154 -502 0
-50 -154 502 0
c gate 503 -501 -502 0
-501 -503 0
-502 -503 0
501 502 503 0
c gate 504 -49 -153 0
-49 -504 0
-153 -504 0
49 153 504 0
c gate 505 -52 -156 0
-52 -505 0
-156 -505 0
52 156 505 0
c gate 506 -504 -505 0
-504 -506 0
-505 -506 0
504 505 506 0
c gate 507 503 506 0
503 -507 0
506 -507 0
-503 -506 507 0
c gate 508 -51 -155 0
-51 -508 0
-155 -508 0
51 155 508 0
c gate 509 -50 -154 0
-50 -509 0
-154 -509 0
50 154 509 0
c gate 510 -508 -509 0
-508 -510 0
-509 -510 0
508 509 510 0
c gate 511 52 156 0
52 -511 0
156 -511 0
-52 -156 511 0
c gate 512 51 155 0
51 -512 0
155 -512 0
-51 -155 512 0
c gate 513 -511 -512 0
-511 -513 0
-512 -513 0
511 512 513 0
c gate 514 510 513 0
510 -514 0
513 -514 0
-510 -513 514 0
c gate 515 507 514 0
507 -515 0
514 -515 0
-507 -514 515 0
c gate 516 -500 515 0
-500 -516 0
515 -516 0
500 -515 516 0
c gate 517 -323 498 0
-323 -517 0
498 -517 0
323 -498 517 0
c gate 518 -308 -517 0
-308 -518 0
-517 -518 0
308 517 518 0
c gate 519 515 -518 0
515 -519 0
-518 -519 0
-515 518 519 0
c gate 520 -503 510 0
-503 -520 0
510 -520 0
503 -510 520 0
c gate 521 513 -520 0
513 -521 0
-520 -521 0
-513 520 521 0
c gate 522 -505 -521 0
-505 -522 0
-521 -522 0
505 521 522 0
c gate 523 -519 -522 0
-519 -523 0
-522 -523 0
519 522 523 0
c gate 524 -516 523 0
-516 -524 0
523 -524 0
516 -523 524 0
c gate 525 -53 -157 0
-53 -525 0
-157 -525 0
53 157 525 0
c gate 526 -55 -159 0
-55 -526 0
-159 -526 0
55 159 526 0
c gate 527 -54 -158 0
-54 -527 0
-158 -527 0
54 158 527 0
c gate 528 -526 -527 0
-526 -528 0
-527 -528 0
526 527 528 0
c gate 529 -525 528 0
-525 -529 0
528 -529 0
525 -528 529 0
c gate 530 -524 529 0
-524 -530 0
529 -530 0
524 -529 530 0
c gate 531 53 157 0
53 -531 0
157 -531 0
-53 -157 531 0
c gate 532 54 158 0
54 -532 0
158 -532 0
-54 -158 532 0
c gate 533 -531 -532 0
-531 -533 0
-532 -533 0
531 532 533 0
c gate 534 528 -533 0
528 -534 0
-533 -534 0
-528 533 534 0
c gate 535 55 159 0
55 -535 0
159 -535 0
-55 -159 535 0
c gate 536 56 160 0
56 -536 0
160 -536 0
-56 -160 536 0
c gate 537 -535 -536 0
-535 -537 0
-536 -537 0
535 536 537 0
c gate 538 -534 537 0
-534 -538 0
537 -538 0
534 -537 538 0
c gate 539 -530 538 0
-530 -539 0
538 -539 0
530 -538 539 0
c gate 540 -56 -160 0
-56 -540 0
-160 -540 0
56 160 540 0
c gate 541 -57 -161 0
-57 -541 0
-161 -541 0
57 161 541 0
c gate 542 -267 -541 0
-267 -542 0
-541 -542 0
267 541 542 0
c gate 543 -540 542 0
-540 -543 0
542 -543 0
540 -542 543 0
c gate 544 273 543 0
273 -544 0
543 -544 0
-273 -543 544 0
c gate 545 278 544 0
278 -545 0
544 -545 0
-278 -544 545 0
c gate 546 -539 545 0
-539 -546 0
545 -546 0
539 -545 546 0
c gate 547 -279 -546 0
-279 -547 0
-546 -547 0
279 546 547 0
c gate 548 266 -547 0
266 -548 0
-547 -548 0
-266 547 548 0
c gate 549 61 165 0
61 -549 0
165 -549 0
-61 -165 549 0
c gate 550 62 166 0
62 -550 0
166 -550 0
-62 -166 550 0
c gate 551 -549 -550 0
-549 -551 0
-550 -551 0
549 550 551 0
c gate 552 265 -551 0
265 -552 0
-551 -552 0
-265 551 552 0
c gate 553 64 168 0
64 -553 0
168 -553 0
-64 -168 553 0
c gate 554 63 167 0
63 -554 0
167 -554 0
-63 -167 554 0
c gate 555 -263 554 0
-263 -555 0
554 -555 0
263 -554 555 0
c gate 556 -553 -555 0
-553 -556 0
-555 -556 0
553 555 556 0
c gate 557 -552 556 0
-552 -557 0
556 -557 0
552 -556 557 0
c gate 558 -548 557 0
-548 -558 0
557 -558 0
548 -557 558 0
c gate 559 -67 -171 0
-67 -559 0
-171 -559 0
67 171 559 0
c gate 560 65 169 0
65 -560 0
169 -560 0
-65 -169 560 0
c gate 561 -66 -170 0
-66 -561 0
-170 -561 0
66 170 561 0
c gate 562 -560 -561 0
-560 -562 0
-561 -562 0
560 561 562 0
c gate 563 -559 562 0
-559 -563 0
562 -563 0
559 -562 563 0
c gate 564 66 170 0
66 -564 0
170 -564 0
-66 -170 564 0
c gate 565 67 171 0
67 -565 0
171 -565 0
-67 -171 565 0
c gate 566 -564 -565 0
-564 -566 0
-565 -566 0
564 565 566 0
c gate 567 -69 -173 0
-69 -567 0
-173 -567 0
69 173 567 0
c gate 568 -68 -172 0
-68 -568 0
-172 -568 0
68 172 568 0
c gate 569 -567 -568 0
-567 -569 0
-568 -569 0
567 568 569 0
c gate 570 68 172 0
68 -570 0
172 -570 0
-68 -172 570 0
c gate 571 -65 -169 0
-65 -571 0
-169 -571 0
65 169 571 0
c gate 572 -570 -571 0
-570 -572 0
-571 -572 0
570 571 572 0
c gate 573 569 572 0
569 -573 0
572 -573 0
-569 -572 573 0
c gate 574 566 573 0
566 -574 0
573 -574 0
-566 -573 574 0
c gate 575 563 574 0
563 -575 0
574 -575 0
-563 -574 575 0
c gate 576 -558 575 0
-558 -576 0
575 -576 0
558 -575 576 0
c gate 577 560 -561 0
560 -577 0
-561 -577 0
-560 561 577 0
c gate 578 566 -577 0
566 -578 0
-577 -578 0
-566 577 578 0
c gate 579 -559 -578 0
-559 -579 0
-578 -579 0
559 578 579 0
c gate 580 -570 -579 0
-570 -580 0
-579 -580 0
570 579 580 0
c gate 581 569 -580 0
569 -581 0
-580 -581 0
-569 580 581 0
c gate 582 69 173 0
69 -582 0
173 -582 0
-69 -173 582 0
c gate 583 70 174 0
70 -583 0
174 -583 0
-70 -174 583 0
c gate 584 -582 -583 0
-582 -584 0
-583 -584 0
582 583 584 0
c gate 585 -581 584 0
-581 -585 0
584 -585 0
581 -584 585 0
c gate 586 -576 585 0
-576 -586 0
585 -586 0
576 -585 586 0
c gate 587 -70 -174 0
-70 -587 0
-174 -587 0
70 174 587 0
c gate 588 -71 -175 0
-71 -588 0
-175 -588 0
71 175 588 0
c gate 589 -255 -588 0
-255 -589 0
-588 -589 0
255 588 589 0
c gate 590 -587 589 0
-587 -590 0
589 -590 0
587 -589 590 0
c gate 591 258 590 0
258 -591 0
590 -591 0
-258 -590 591 0
c gate 592 -586 591 0
-586 -592 0
591 -592 0
586 -591 592 0
c gate 593 -259 -592 0
-259 -593 0
-592 -593 0
259 592 593 0
c gate 594 -76 -180 0
-76 -594 0
-180 -594 0
76 180 594 0
c gate 595 -75 -179 0
-75 -595 0
-179 -595 0
75 179 595 0
c gate 596 -74 -178 0
-74 -596 0
-178 -596 0
74 178 596 0
c gate 597 -73 -177 0
-73 -597 0
-177 -597 0
73 177 597 0
c gate 598 -596 -597 0
-596 -598 0
-597 -598 0
596 597 598 0
c gate 599 -595 598 0
-595 -599 0
598 -599 0
595 -598 599 0
c gate 600 -594 599 0
-594 -600 0
599 -600 0
594 -599 600 0
c gate 601 -593 600 0
-593 -601 0
600 -601 0
593 -600 601 0
c gate 602 76 180 0
76 -602 0
180 -602 0
-76 -180 602 0
c gate 603 75 179 0
75 -603 0
179 -603 0
-75 -179 603 0
c gate 604 73 177 0
73 -604 0
177 -604 0
-73 -177 604 0
c gate 605 74 178 0
74 -605 0
178 -605 0
-74 -178 605 0
c gate 606 -604 -605 0
-604 -606 0
-605 -606 0
604 605 606 0
c gate 607 -596 -606 0
-596 -607 0
-606 -607 0
596 606 607 0
c gate 608 -603 -607 0
-603 -608 0
-607 -608 0
603 607 608 0
c gate 609 -594 -595 0
-594 -609 0
-595 -609 0
594 595 609 0
c gate 610 -608 609 0
-608 -610 0
609 -610 0
608 -609 610 0
c gate 611 -602 -610 0
-602 -611 0
-610 -611 0
602 610 611 0
c gate 612 -601 611 0
-601 -612 0
611 -612 0
601 -611 612 0
c gate 613 254 -612 0
254 -613 0
-612 -613 0
-254 612 613 0
c gate 614 -248 -613 0
-248 -614 0
-613 -614 0
248 613 614 0
c gate 615 81 185 0
81 -615 0
185 -615 0
-81 -185 615 0
c gate 616 614 -615 0
614 -616 0
-615 -616 0
-614 615 616 0
c gate 617 -81 -185 0
-81 -617 0
-185 -617 0
81 185 617 0
c gate 618 -616 -617 0
-616 -618 0
-617 -618 0
616 617 618 0
c gate 619 -235 -618 0
-235 -619 0
-618 -619 0
235 618 619 0
c gate 620 -82 -186 0
-82 -620 0
-186 -620 0
82 186 620 0
c gate 621 -83 -187 0
-83 -621 0
-187 -621 0
83 187 621 0
c gate 622 -620 -621 0
-620 -622 0
-621 -622 0
620 621 622 0
c gate 623 -619 622 0
-619 -623 0
622 -623 0
619 -622 623 0
c gate 624 84 188 0
84 -624 0
188 -624 0
-84 -188 624 0
c gate 625 83 187 0
83 -625 0
187 -625 0
-83 -187 625 0
c gate 626 -624 -625 0
-624 -626 0
-625 -626 0
624 625 626 0
c gate 627 -623 626 0
-623 -627 0
626 -627 0
623 -626 627 0
c gate 628 -85 -189 0
-85 -628 0
-189 -628 0
85 189 628 0
c gate 629 -84 -188 0
-84 -629 0
-188 -629 0
84 188 629 0
c gate 630 -628 -629 0
-628 -630 0
-629 -630 0
628 629 630 0
c gate 631 -627 630 0
-627 -631 0
630 -631 0
627 -630 631 0
c gate 632 86 190 0
86 -632 0
190 -632 0
-86 -190 632 0
c gate 633 85 189 0
85 -633 0
189 -633 0
-85 -189 633 0
c gate 634 -632 -633 0
-632 -634 0
-633 -634 0
632 633 634 0
c gate 635 -631 634 0
-631 -635 0
634 -635 0
631 -634 635 0
c gate 636 -87 -191 0
-87 -636 0
-191 -636 0
87 191 636 0
c gate 637 -86 -190 0
-86 -637 0
-190 -637 0
86 190 637 0
c gate 638 -636 -637 0
-636 -638 0
-637 -638 0
636 637 638 0
c gate 639 -635 638 0
-635 -639 0
638 -639 0
635 -638 639 0
c gate 640 88 192 0
88 -640 0
192 -640 0
-88 -192 640 0
c gate 641 87 191 0
87 -641 0
191 -641 0
-87 -191 641 0
c gate 642 -640 -641 0
-640 -642 0
-641 -642 0
640 641 642 0
c gate 643 -639 642 0
-639 -643 0
642 -643 0
639 -642 643 0
c gate 644 -216 -221 0
-216 -644 0
-221 -644 0
216 221 644 0
c gate 645 -88 -192 0
-88 -645 0
-192 -645 0
88 192 645 0
c gate 646 -89 -193 0
-89 -646 0
-193 -646 0
89 193 646 0
c gate 647 -645 -646 0
-645 -647 0
-646 -647 0
645 646 647 0
c gate 648 644 647 0
644 -648 0
647 -648 0
-644 -647 648 0
c gate 649 220 648 0
220 -649 0
648 -649 0
-220 -648 649 0
c gate 650 227 649 0
227 -650 0
649 -650 0
-227 -649 650 0
c gate 651 -643 650 0
-643 -651 0
650 -651 0
643 -650 651 0
c gate 652 234 -651 0
234 -652 0
-651 -652 0
-234 651 652 0
c gate 653 215 -652 0
215 -653 0
-652 -653 0
-215 652 653 0
c gate 654 212 -653 0
212 -654 0
-653 -654 0
-212 653 654 0
c gate 655 -209 -654 0
-209 -655 0
-654 -655 0
209 654 655 0
c gate 656 99 203 0
99 -656 0
203 -656 0
-99 -203 656 0
c gate 657 100 204 0
100 -657 0
204 -657 0
-100 -204 657 0
c gate 658 -656 -657 0
-656 -658 0
-657 -658 0
656 657 658 0
c gate 659 -100 -204 0
-100 -659 0
-204 -659 0
100 204 659 0
c gate 660 -97 -201 0
-97 -660 0
-201 -660 0
97 201 660 0
c gate 661 -659 -660 0
-659 -661 0
-660 -661 0
659 660 661 0
c gate 662 658 661 0
658 -662 0
661 -662 0
-658 -661 662 0
c gate 663 98 202 0
98 -663 0
202 -663 0
-98 -202 663 0
c gate 664 97 201 0
97 -664 0
201 -664 0
-97 -201 664 0
c gate 665 -663 -664 0
-663 -665 0
-664 -665 0
663 664 665 0
c gate 666 -99 -203 0
-99 -666 0
-203 -666 0
99 203 666 0
c gate 667 -98 -202 0
-98 -667 0
-202 -667 0
98 202 667 0
c gate 668 -666 -667 0
-666 -668 0
-667 -668 0
666 667 668 0
c gate 669 665 668 0
665 -669 0
668 -669 0
-665 -668 669 0
c gate 670 662 669 0
662 -670 0
669 -670 0
-662 -669 670 0
c gate 671 -104 -208 0
-104 -671 0
-208 -671 0
104 208 671 0
c gate 672 104 208 0
104 -672 0
208 -672 0
-104 -208 672 0
c gate 673 -671 -672 0
-671 -673 0
-672 -673 0
671 672 673 0
c gate 674 -103 -207 0
-103 -674 0
-207 -674 0
103 207 674 0
c gate 675 103 207 0
103 -675 0
207 -675 0
-103 -207 675 0
c gate 676 -674 -675 0
-674 -676 0
-675 -676 0
674 675 676 0
c gate 677 673 676 0
673 -677 0
676 -677 0
-673 -676 677 0
c gate 678 670 -677 0
670 -678 0
-677 -678 0
-670 677 678 0
c gate 679 655 678 0
655 -679 0
678 -679 0
-655 -678 679 0
c gate 680 -665 668 0
-665 -680 0
668 -680 0
665 -668 680 0
c gate 681 658 -680 0
658 -681 0
-680 -681 0
-658 680 681 0
c gate 682 -659 -681 0
-659 -682 0
-681 -682 0
659 681 682 0
c gate 683 215 -234 0
215 -683 0
-234 -683 0
-215 234 683 0
c gate 684 212 -683 0
212 -684 0
-683 -684 0
-212 683 684 0
c gate 685 -209 670 0
-209 -685 0
670 -685 0
209 -670 685 0
c gate 686 -684 685 0
-684 -686 0
685 -686 0
684 -685 686 0
c gate 687 -682 -686 0
-682 -687 0
-686 -687 0
682 686 687 0
c gate 688 102 -206 0
102 -688 0
-206 -688 0
-102 206 688 0
c gate 689 -102 206 0
-102 -689 0
206 -689 0
102 -206 689 0
c gate 690 -688 -689 0
-688 -690 0
-689 -690 0
688 689 690 0
c gate 691 -101 -205 0
-101 -691 0
-205 -691 0
101 205 691 0
c gate 692 101 205 0
101 -692 0
205 -692 0
-101 -205 692 0
c gate 693 -691 -692 0
-691 -693 0
-692 -693 0
691 692 693 0
c gate 694 -690 693 0
-690 -694 0
693 -694 0
690 -693 694 0
c gate 695 -682 694 0
-682 -695 0
694 -695 0
682 -694 695 0
c gate 696 -687 695 0
-687 -696 0
695 -696 0
687 -695 696 0
c gate 697 -679 696 0
-679 -697 0
696 -697 0
679 -696 697 0
c gate 698 670 687 0
670 -698 0
687 -698 0
-670 -687 698 0
c gate 699 -684 -698 0
-684 -699 0
-698 -699 0
684 698 699 0
c gate 700 655 -699 0
655 -700 0
-699 -700 0
-655 699 700 0
c gate 701 -585 590 0
-585 -701 0
590 -701 0
585 -590 701 0
c gate 702 -259 -701 0
-259 -702 0
-701 -702 0
259 701 702 0
c gate 703 600 -702 0
600 -703 0
-702 -703 0
-600 702 703 0
c gate 704 611 -703 0
611 -704 0
-703 -704 0
-611 703 704 0
c gate 705 -242 -704 0
-242 -705 0
-704 -705 0
242 704 705 0
c gate 706 251 -612 0
251 -706 0
-612 -706 0
-251 612 706 0
c gate 707 705 706 0
705 -707 0
706 -707 0
-705 -706 707 0
c gate 708 -249 705 0
-249 -708 0
705 -708 0
249 -705 708 0
c gate 709 -241 708 0
-241 -709 0
708 -709 0
241 -708 709 0
c gate 710 -706 -709 0
-706 -710 0
-709 -710 0
706 709 710 0
c gate 711 -245 -710 0
-245 -711 0
-710 -711 0
245 710 711 0
c gate 712 -707 711 0
-707 -712 0
711 -712 0
707 -711 712 0
c gate 713 254 611 0
254 -713 0
611 -713 0
-254 -611 713 0
c gate 714 703 713 0
703 -714 0
713 -714 0
-703 -713 714 0
c gate 715 253 -611 0
253 -715 0
-611 -715 0
-253 611 715 0
c gate 716 -248 -715 0
-248 -716 0
-715 -716 0
248 715 716 0
c gate 717 -714 716 0
-714 -717 0
716 -717 0
714 -716 717 0
c gate 718 614 -717 0
614 -718 0
-717 -718 0
-614 717 718 0
c gate 719 -614 717 0
-614 -719 0
717 -719 0
614 -717 719 0
c gate 720 -593 606 0
-593 -720 0
606 -720 0
593 -606 720 0
c gate 721 702 -720 0
702 -721 0
-720 -721 0
-702 720 721 0
c gate 722 -702 720 0
-702 -722 0
720 -722 0
702 -720 722 0
c gate 723 599 608 0
599 -723 0
608 -723 0
-599 -608 723 0
c gate 724 -722 723 0
-722 -724 0
723 -724 0
722 -723 724 0
c gate 725 -721 724 0
-721 -725 0
724 -725 0
721 -724 725 0
c gate 726 612 708 0
612 -726 0
708 -726 0
-612 -708 726 0
c gate 727 585 592 0
585 -727 0
592 -727 0
-585 -592 727 0
c gate 728 -258 701 0
-258 -728 0
701 -728 0
258 -701 728 0
c gate 729 -727 -728 0
-727 -729 0
-728 -729 0
727 728 729 0
c gate 730 -259 -729 0
-259 -730 0
-729 -730 0
259 729 730 0
c gate 731 266 279 0
266 -731 0
279 -731 0
-266 -279 731 0
c gate 732 557 -731 0
557 -732 0
-731 -732 0
-557 731 732 0
c gate 733 575 -732 0
575 -733 0
-732 -733 0
-575 732 733 0
c gate 734 585 -587 0
585 -734 0
-587 -734 0
-585 587 734 0
c gate 735 -733 734 0
-733 -735 0
734 -735 0
733 -734 735 0
c gate 736 -586 735 0
-586 -736 0
735 -736 0
586 -735 736 0
c gate 737 548 732 0
548 -737 0
732 -737 0
-548 -732 737 0
c gate 738 516 523 0
516 -738 0
523 -738 0
-516 -523 738 0
c gate 739 499 518 0
499 -739 0
518 -739 0
-499 -518 739 0
c gate 740 469 -476 0
469 -740 0
-476 -740 0
-469 476 740 0
c gate 741 474 -481 0
474 -741 0
-481 -741 0
-474 481 741 0
c gate 742 326 741 0
326 -742 0
741 -742 0
-326 -741 742 0
c gate 743 473 742 0
473 -743 0
742 -743 0
-473 -742 743 0
c gate 744 488 743 0
488 -744 0
743 -744 0
-488 -743 744 0
c gate 745 -469 -744 0
-469 -745 0
-744 -745 0
469 744 745 0
c gate 746 -479 -745 0
-479 -746 0
-745 -746 0
479 745 746 0
c gate 747 -740 746 0
-740 -747 0
746 -747 0
740 -746 747 0
c gate 748 426 434 0
426 -748 0
434 -748 0
-426 -434 748 0
c gate 749 -437 -443 0
-437 -749 0
-443 -749 0
437 443 749 0
c gate 750 457 749 0
457 -750 0
749 -750 0
-457 -749 750 0
c gate 751 463 750 0
463 -751 0
750 -751 0
-463 -750 751 0
c gate 752 -748 751 0
-748 -752 0
751 -752 0
748 -751 752 0
c gate 753 435 752 0
435 -753 0
752 -753 0
-435 -752 753 0
c gate 754 420 425 0
420 -754 0
425 -754 0
-420 -425 754 0
c gate 755 458 469 0
458 -755 0
469 -755 0
-458 -469 755 0
c gate 756 748 755 0
748 -756 0
755 -756 0
-748 -755 756 0
c gate 757 -754 -756 0
-754 -757 0
-756 -757 0
754 756 757 0
c gate 758 -753 757 0
-753 -758 0
757 -758 0
753 -757 758 0
c gate 759 -747 758 0
-747 -759 0
758 -759 0
747 -758 759 0
c gate 760 -739 759 0
-739 -760 0
759 -760 0
739 -759 760 0
c gate 761 -738 760 0
-738 -761 0
760 -761 0
738 -760 761 0
c gate 762 -737 761 0
-737 -762 0
761 -762 0
737 -761 762 0
c gate 763 -736 762 0
-736 -763 0
762 -763 0
736 -762 763 0
c gate 764 -730 763 0
-730 -764 0
763 -764 0
730 -763 764 0
c gate 765 -726 764 0
-726 -765 0
764 -765 0
726 -764 765 0
c gate 766 -725 765 0
-725 -766 0
765 -766 0
725 -765 766 0
c gate 767 -719 766 0
-719 -767 0
766 -767 0
719 -766 767 0
c gate 768 -718 767 0
-718 -768 0
767 -768 0
718 -767 768 0
c gate 769 -712 768 0
-712 -769 0
768 -769 0
712 -768 769 0
c gate 770 -700 769 0
-700 -770 0
769 -770 0
700 -769 770 0
c gate 771 -697 770 0
-697 -771 0
770 -771 0
697 -770 771 0
c PO
-771 0
